presolving:
(round 1, fast)       442 del vars, 0 del conss, 0 add conss, 0 chg bounds, 0 chg sides, 0 chg coeffs, 0 upgd conss, 0 impls, 98345 clqs
(round 2, exhaustive) 442 del vars, 0 del conss, 0 add conss, 0 chg bounds, 0 chg sides, 0 chg coeffs, 98345 upgd conss, 0 impls, 98345 clqs
   (8.0s) probing: 51/194922 (0.0%) - 0 fixings, 0 aggregations, 0 implications, 0 bound changes
   (8.0s) probing aborted: 50/50 successive totally useless probings
   Deactivated symmetry handling methods, since SCIP was built without symmetry detector (SYM=none).
presolving (3 rounds: 3 fast, 2 medium, 2 exhaustive):
 442 deleted vars, 0 deleted constraints, 0 added constraints, 0 tightened bounds, 0 added holes, 0 changed sides, 0 changed coefficients
 0 implications, 98345 cliques
presolved problem has 194922 variables (194922 bin, 0 int, 0 impl, 0 cont) and 98345 constraints
  98345 constraints of type <setppc>
Presolving Time: 7.00

 time | node  | left  |LP iter|LP it/n|mem/heur|mdpt |vars |cons |rows |cuts |sepa|confs|strbr|  dualbound   | primalbound  |  gap   | compl. 
p10.0s|     1 |     0 |     0 |     - |  clique|   0 | 194k|  98k| 884 |   0 |  0 |   0 |   0 | 0.000000e+00 | 6.305487e+04 |    Inf | unknown
 15.0s|     1 |     0 |   876 |     - |  1132M |   0 | 194k|  98k| 884 |   0 |  0 |  23 |   0 | 4.683417e+04 | 6.305487e+04 |  34.63%| unknown
 15.0s|     1 |     0 |  1230 |     - |  1132M |   0 | 194k|  98k|1030 | 146 |  1 |  23 |   0 | 4.977136e+04 | 6.305487e+04 |  26.69%| unknown
 19.0s|     1 |     0 |  1334 |     - |  1161M |   0 | 194k|  98k|1070 | 186 |  2 |  23 |   0 | 5.009158e+04 | 6.305487e+04 |  25.88%| unknown
 22.0s|     1 |     0 |  1373 |     - |  1176M |   0 | 194k|  98k|1078 | 194 |  3 |  23 |   0 | 5.010981e+04 | 6.305487e+04 |  25.83%| unknown
 24.0s|     1 |     0 |  1385 |     - |  1181M |   0 | 194k|  98k|1083 | 199 |  4 |  23 |   0 | 5.010981e+04 | 6.305487e+04 |  25.83%| unknown
 27.0s|     1 |     0 |  1413 |     - |  1185M |   0 | 194k|  98k|1093 | 209 |  5 |  23 |   0 | 5.014193e+04 | 6.305487e+04 |  25.75%| unknown
 29.0s|     1 |     0 |  1473 |     - |  1189M |   0 | 194k|  98k|1103 | 219 |  6 |  23 |   0 | 5.019027e+04 | 6.305487e+04 |  25.63%| unknown
 32.0s|     1 |     0 |  1502 |     - |  1198M |   0 | 194k|  98k|1115 | 231 |  7 |  23 |   0 | 5.024554e+04 | 6.305487e+04 |  25.49%| unknown
 35.0s|     1 |     0 |  1529 |     - |  1205M |   0 | 194k|  98k|1125 | 241 |  8 |  23 |   0 | 5.025089e+04 | 6.305487e+04 |  25.48%| unknown
 37.0s|     1 |     0 |  1555 |     - |  1207M |   0 | 194k|  98k|1134 | 250 |  9 |  23 |   0 | 5.029389e+04 | 6.305487e+04 |  25.37%| unknown
 40.0s|     1 |     0 |  1571 |     - |  1214M |   0 | 194k|  98k|1142 | 258 | 10 |  23 |   0 | 5.029580e+04 | 6.305487e+04 |  25.37%| unknown
 42.0s|     1 |     0 |  1574 |     - |  1214M |   0 | 194k|  98k|1096 | 262 | 11 |  23 |   0 | 5.029580e+04 | 6.305487e+04 |  25.37%| unknown
 43.0s|     1 |     0 |  1581 |     - |  1215M |   0 | 194k|  98k|1100 | 266 | 12 |  23 |   0 | 5.029580e+04 | 6.305487e+04 |  25.37%| unknown
 45.0s|     1 |     0 |  1592 |     - |  1215M |   0 | 194k|  98k|1109 | 275 | 13 |  23 |   0 | 5.029580e+04 | 6.305487e+04 |  25.37%| unknown
 time | node  | left  |LP iter|LP it/n|mem/heur|mdpt |vars |cons |rows |cuts |sepa|confs|strbr|  dualbound   | primalbound  |  gap   | compl. 
 46.0s|     1 |     0 |  1605 |     - |  1216M |   0 | 194k|  98k|1116 | 282 | 14 |  23 |   0 | 5.029580e+04 | 6.305487e+04 |  25.37%| unknown
 48.0s|     1 |     0 |  1618 |     - |  1216M |   0 | 194k|  98k|1119 | 285 | 15 |  23 |   0 | 5.029799e+04 | 6.305487e+04 |  25.36%| unknown
 49.0s|     1 |     0 |  1670 |     - |  1218M |   0 | 194k|  98k|1124 | 290 | 16 |  23 |   0 | 5.030624e+04 | 6.305487e+04 |  25.34%| unknown
 52.0s|     1 |     0 |  1732 |     - |  1218M |   0 | 194k|  98k|1102 | 301 | 17 |  23 |   0 | 5.032363e+04 | 6.305487e+04 |  25.30%| unknown
 53.0s|     1 |     0 |  1759 |     - |  1221M |   0 | 194k|  98k|1104 | 303 | 18 |  23 |   0 | 5.033193e+04 | 6.305487e+04 |  25.28%| unknown
 54.0s|     1 |     0 |  1770 |     - |  1221M |   0 | 194k|  98k|1111 | 310 | 19 |  23 |   0 | 5.033206e+04 | 6.305487e+04 |  25.28%| unknown
 56.0s|     1 |     0 |  1784 |     - |  1222M |   0 | 194k|  98k|1117 | 316 | 20 |  23 |   0 | 5.033206e+04 | 6.305487e+04 |  25.28%| unknown
 57.0s|     1 |     0 |  1788 |     - |  1223M |   0 | 194k|  98k|1118 | 317 | 21 |  23 |   0 | 5.033206e+04 | 6.305487e+04 |  25.28%| unknown
  127s|     1 |     2 |  6125 |     - |  1235M |   0 | 194k|  98k|1118 | 317 | 23 |  23 |  21 | 5.033215e+04 | 6.305487e+04 |  25.28%| unknown
* 470s|    38 |    37 |  7272 | 148.2 |    LP  |  24 | 194k|  98k|1088 | 380 |  2 |  23 | 826 | 5.033269e+04 | 5.066828e+04 |   0.67%| unknown
* 471s|    39 |    36 |  7275 | 144.4 |strongbr|  24 | 194k|  98k|1087 | 380 |  2 |  23 | 826 | 5.033269e+04 | 5.065165e+04 |   0.63%| unknown
* 472s|    39 |    36 |  7275 | 144.4 |strongbr|  24 | 194k|  98k|1087 | 380 |  2 |  23 | 831 | 5.033269e+04 | 5.060970e+04 |   0.55%| unknown
* 544s|    50 |    40 |  7569 | 118.0 |strongbr|  24 | 194k|  98k|1084 | 385 |  7 | 214 |1059 | 5.033269e+04 | 5.058571e+04 |   0.50%| unknown
* 544s|    50 |    40 |  7569 | 118.0 |strongbr|  24 | 194k|  98k|1084 | 385 |  7 | 214 |1060 | 5.033269e+04 | 5.056157e+04 |   0.45%| unknown
* 571s|    55 |    36 |  7639 | 108.4 |    LP  |  24 | 194k|  98k|1082 | 386 |  2 | 301 |1137 | 5.033269e+04 | 5.054376e+04 |   0.42%| unknown
 time | node  | left  |LP iter|LP it/n|mem/heur|mdpt |vars |cons |rows |cuts |sepa|confs|strbr|  dualbound   | primalbound  |  gap   | compl. 
* 598s|    61 |    27 |  7769 |  99.7 |    LP  |  24 | 194k|  98k|1083 | 390 |  2 | 398 |1216 | 5.033269e+04 | 5.052068e+04 |   0.37%| unknown
* 701s|    77 |    24 |  8138 |  83.6 |strongbr|  24 | 194k|  98k|1091 | 426 |  3 | 516 |1528 | 5.033269e+04 | 5.045047e+04 |   0.23%| unknown
* 743s|    88 |    18 |  8310 |  75.0 |    LP  |  24 | 194k|  98k|1088 | 433 |  2 | 516 |1665 | 5.033269e+04 | 5.040958e+04 |   0.15%|   2.63%
* 745s|    89 |    16 |  8354 |  74.6 |strongbr|  24 | 194k|  98k|1087 | 436 |  3 | 516 |1668 | 5.033269e+04 | 5.040217e+04 |   0.14%|   2.77%
  821s|   100 |    14 |  8763 |  70.5 |  1387M |  24 | 194k|  98k|1080 | 442 |  0 | 603 |1914 | 5.033393e+04 | 5.040217e+04 |   0.14%|   7.60%
* 942s|   121 |    27 |  9152 |  61.4 |    LP  |  24 | 194k|  98k|1083 | 463 |  3 | 694 |2310 | 5.033393e+04 | 5.039600e+04 |   0.12%|   8.47%
*1047s|   165 |    20 | 10042 |  50.3 |    LP  |  24 | 194k|  99k|1081 | 489 |  1 | 813 |2623 | 5.033393e+04 | 5.038746e+04 |   0.11%|  12.91%
 1191s|   200 |    26 | 11160 |  47.1 |  1420M |  24 | 194k|  99k|1095 | 569 |  2 | 944 |2906 | 5.033393e+04 | 5.038746e+04 |   0.11%|  18.87%
*1203s|   214 |    20 | 11390 |  45.1 |    LP  |  24 | 194k|  99k|1088 | 580 |  1 | 968 |2915 | 5.033393e+04 | 5.038099e+04 |   0.09%|  18.97%
 1893s|   300 |    26 | 14673 |  43.1 |  1424M |  24 | 194k|  99k|1102 | 804 |  8 |1641 |4396 | 5.033785e+04 | 5.038099e+04 |   0.09%|  33.63%
 2176s|   400 |    11 | 18227 |  41.2 |  1431M |  24 | 194k|  99k|1083 | 997 |  1 |2259 |5027 | 5.033828e+04 | 5.038099e+04 |   0.08%|  58.00%
 2284s|   500 |    13 | 20664 |  37.8 |  1432M |  24 | 194k|  99k|1077 |1261 |  0 |2559 |5263 | 5.034170e+04 | 5.038099e+04 |   0.08%|  67.21%

SCIP Status        : solving was interrupted [gap limit reached]
Solving Time (sec) : 2335.00
Solving Nodes      : 577
Primal Bound       : +5.03809922558071e+04 (14 solutions)
Dual Bound         : +5.03770524074364e+04
Gap                : 0.01 %
Trying to solve problem with DFJ2 version 2.0 Method...
2335.0
Route:  [[0, 441], [1, 0], [2, 3], [3, 36], [4, 37], [5, 4], [6, 7], [7, 8], [8, 9], [9, 42], [10, 11], [11, 44], [12, 13], [13, 46], [14, 47], [15, 14], [16, 49], [17, 16], [18, 17], [19, 18], [20, 19], [21, 54], [22, 21], [23, 56], [24, 23], [25, 24], [26, 25], [27, 60], [28, 27], [29, 28], [30, 29], [31, 375], [32, 31], [33, 65], [34, 1], [35, 2], [36, 68], [37, 69], [38, 5], [39, 6], [40, 72], [41, 40], [42, 43], [43, 10], [44, 76], [45, 12], [46, 78], [47, 48], [48, 15], [49, 81], [50, 51], [51, 83], [52, 53], [53, 20], [54, 55], [55, 22], [56, 88], [57, 89], [58, 57], [59, 26], [60, 61], [61, 62], [62, 94], [63, 30], [64, 63], [65, 66], [66, 34], [67, 35], [68, 67], [69, 70], [70, 38], [71, 39], [72, 71], [73, 41], [74, 73], [75, 74], [76, 98], [77, 45], [78, 77], [79, 99], [80, 79], [81, 80], [82, 50], [83, 84], [84, 52], [85, 381], [86, 85], [87, 377], [88, 87], [89, 90], [90, 58], [91, 59], [92, 91], [93, 435], [94, 93], [95, 379], [96, 64], [97, 96], [98, 75], [99, 106], [100, 92], [101, 102], [102, 113], [103, 440], [104, 105], [105, 116], [106, 117], [107, 438], [108, 119], [109, 121], [110, 122], [111, 110], [112, 382], [113, 125], [114, 103], [115, 151], [116, 104], [117, 128], [118, 107], [119, 384], [120, 109], [121, 131], [122, 132], [123, 111], [124, 112], [125, 135], [126, 385], [127, 138], [128, 140], [129, 118], [130, 387], [131, 390], [132, 145], [133, 123], [134, 124], [135, 148], [136, 388], [137, 115], [138, 139], [139, 127], [140, 153], [141, 129], [142, 130], [143, 144], [144, 156], [145, 157], [146, 133], [147, 134], [148, 160], [149, 150], [150, 136], [151, 391], [152, 392], [153, 164], [154, 393], [155, 142], [156, 167], [157, 168], [158, 146], [159, 147], [160, 171], [161, 149], [162, 152], [163, 396], [164, 163], [165, 154], [166, 155], [167, 180], [168, 181], [169, 158], [170, 159], [171, 184], [172, 161], [173, 185], [174, 186], [175, 162], [176, 188], [177, 165], [178, 397], [179, 166], [180, 193], [181, 196], [182, 169], [183, 170], [184, 399], [185, 172], [186, 398], [187, 175], [188, 200], [189, 202], [190, 189], [191, 179], [192, 191], [193, 204], [194, 195], [195, 206], [196, 207], [197, 182], [198, 183], [199, 187], [200, 201], [201, 401], [202, 190], [203, 192], [204, 216], [205, 194], [206, 205], [207, 217], [208, 197], [209, 198], [210, 211], [211, 228], [212, 199], [213, 222], [214, 231], [215, 203], [216, 403], [217, 218], [218, 208], [219, 209], [220, 402], [221, 212], [222, 230], [223, 214], [224, 215], [225, 219], [226, 233], [227, 406], [228, 220], [229, 221], [230, 250], [231, 223], [232, 224], [233, 237], [234, 227], [235, 263], [236, 413], [237, 238], [238, 265], [239, 234], [240, 241], [241, 242], [242, 243], [243, 244], [244, 245], [245, 246], [246, 247], [247, 229], [248, 249], [249, 414], [250, 251], [251, 416], [252, 253], [253, 254], [254, 255], [255, 256], [256, 257], [257, 258], [258, 259], [259, 418], [260, 261], [261, 262], [262, 235], [263, 415], [264, 236], [265, 268], [266, 239], [267, 419], [268, 272], [269, 270], [270, 266], [271, 437], [272, 275], [273, 269], [274, 436], [275, 278], [276, 273], [277, 294], [278, 280], [279, 425], [280, 281], [281, 427], [282, 308], [283, 282], [284, 283], [285, 284], [286, 285], [287, 286], [288, 314], [289, 288], [290, 316], [291, 290], [292, 318], [293, 292], [294, 295], [295, 321], [296, 277], [297, 296], [298, 297], [299, 298], [300, 325], [301, 300], [302, 301], [303, 302], [304, 329], [305, 304], [306, 332], [307, 439], [308, 307], [309, 338], [310, 309], [311, 312], [312, 339], [313, 287], [314, 313], [315, 289], [316, 315], [317, 291], [318, 317], [319, 293], [320, 319], [321, 320], [322, 323], [323, 428], [324, 299], [325, 324], [326, 327], [327, 430], [328, 303], [329, 328], [330, 305], [331, 330], [332, 331], [333, 306], [334, 333], [335, 334], [336, 426], [337, 336], [338, 310], [339, 311], [340, 341], [341, 345], [342, 352], [343, 361], [344, 366], [345, 346], [346, 347], [347, 432], [348, 349], [349, 350], [350, 351], [351, 342], [352, 353], [353, 354], [354, 433], [355, 356], [356, 357], [357, 434], [358, 359], [359, 360], [360, 343], [361, 362], [362, 363], [363, 364], [364, 365], [365, 344], [366, 367], [367, 368], [368, 369], [369, 431], [370, 371], [371, 372], [372, 373], [373, 374], [374, 337], [375, 376], [376, 32], [377, 86], [378, 95], [379, 378], [380, 108], [381, 380], [382, 383], [383, 97], [384, 120], [385, 114], [386, 126], [387, 389], [388, 386], [389, 141], [390, 143], [391, 137], [392, 174], [393, 394], [394, 178], [395, 173], [396, 176], [397, 177], [398, 395], [399, 400], [400, 405], [401, 213], [402, 210], [403, 412], [404, 226], [405, 404], [406, 240], [407, 232], [408, 407], [409, 410], [410, 225], [411, 408], [412, 411], [413, 409], [414, 248], [415, 267], [416, 417], [417, 252], [418, 421], [419, 271], [420, 423], [421, 260], [422, 274], [423, 424], [424, 420], [425, 276], [426, 335], [427, 340], [428, 429], [429, 322], [430, 326], [431, 370], [432, 348], [433, 355], [434, 358], [435, 100], [436, 264], [437, 422], [438, 82], [439, 279], [440, 101], [441, 33]]
A Solution was found
Objective value: 50381.0
Problem solved in 22944 iterations
Problem solved in 577 nodes
Final Route Configuration succesfully created at:
data/routes/pcb442.csv
